70
1 0 5
2 0 3
2 1 5
3 0 3
3 1 5
3 2 4
4 0 1
4 1 5
4 2 5
4 3 4
5 0 1
5 1 4
5 2 4
5 3 5
5 4 3
6 0 1
6 1 5
6 2 2
6 3 1
6 4 4
6 5 3
7 0 2
7 1 1
7 2 2
7 3 5
7 4 3
7 5 1
7 6 1
8 0 4
8 1 2
8 2 1
8 3 3
8 4 4
8 5 4
8 6 3
8 7 3
9 0 4
9 1 1
9 2 1
9 3 5
9 4 4
9 5 5
9 6 1
9 7 2
9 8 1
10 0 1
10 1 5
10 2 3
10 3 4
10 4 2
10 5 1
10 6 3
10 7 1
10 8 2
10 9 2
11 0 3
11 1 4
11 2 3
11 3 2
11 4 4
11 5 1
11 6 4
11 7 5
11 8 4
11 9 5
11 10 1
12 0 2
12 1 2
12 2 3
12 3 2
12 4 4
12 5 4
12 6 1
12 7 5
12 8 4
12 9 5
12 10 2
12 11 1
13 0 3
13 1 3
13 2 1
13 3 2
13 4 2
13 5 1
13 6 1
13 7 3
13 8 2
13 9 2
13 10 4
13 11 4
13 12 3
14 0 5
14 1 4
14 2 2
14 3 3
14 4 2
14 5 1
14 6 4
14 7 4
14 8 1
14 9 3
14 10 3
14 11 1
14 12 1
14 13 1
15 0 2
15 1 4
15 2 2
15 3 3
15 4 3
15 5 1
15 6 1
15 7 1
15 8 3
15 9 1
15 10 5
15 11 5
15 12 5
15 13 4
15 14 4
16 0 5
16 1 2
16 2 4
16 3 4
16 4 2
16 5 2
16 6 4
16 7 4
16 8 1
16 9 2
16 10 5
16 11 5
16 12 3
16 13 4
16 14 1
16 15 4
17 0 2
17 1 1
17 2 1
17 3 3
17 4 4
17 5 4
17 6 4
17 7 5
17 8 1
17 9 2
17 10 3
17 11 5
17 12 2
17 13 1
17 14 5
17 15 3
17 16 3
18 0 1
18 1 3
18 2 2
18 3 3
18 4 4
18 5 3
18 6 2
18 7 4
18 8 1
18 9 2
18 10 3
18 11 5
18 12 5
18 13 5
18 14 2
18 15 3
18 16 5
18 17 4
19 0 3
19 1 5
19 2 1
19 3 4
19 4 3
19 5 3
19 6 3
19 7 1
19 8 3
19 9 1
19 10 5
19 11 2
19 12 4
19 13 5
19 14 3
19 15 4
19 16 5
19 17 3
19 18 4
20 0 3
20 1 5
20 2 1
20 3 4
20 4 1
20 5 2
20 6 2
20 7 3
20 8 3
20 9 2
20 10 2
20 11 2
20 12 1
20 13 3
20 14 1
20 15 4
20 16 1
20 17 1
20 18 4
20 19 3
21 0 4
21 1 2
21 2 1
21 3 1
21 4 2
21 5 3
21 6 3
21 7 5
21 8 3
21 9 2
21 10 4
21 11 3
21 12 2
21 13 3
21 14 1
21 15 1
21 16 2
21 17 5
21 18 5
21 19 5
21 20 1
22 0 4
22 1 2
22 2 3
22 3 4
22 4 2
22 5 4
22 6 4
22 7 3
22 8 2
22 9 5
22 10 5
22 11 3
22 12 4
22 13 5
22 14 3
22 15 5
22 16 2
22 17 5
22 18 4
22 19 4
22 20 5
22 21 2
23 0 1
23 1 1
23 2 2
23 3 2
23 4 4
23 5 3
23 6 4
23 7 1
23 8 4
23 9 2
23 10 4
23 11 1
23 12 1
23 13 4
23 14 2
23 15 5
23 16 1
23 17 5
23 18 3
23 19 3
23 20 2
23 21 3
23 22 4
24 0 2
24 1 2
24 2 4
24 3 5
24 4 1
24 5 2
24 6 4
24 7 5
24 8 5
24 9 5
24 10 4
24 11 3
24 12 1
24 13 3
24 14 3
24 15 5
24 16 2
24 17 5
24 18 4
24 19 5
24 20 5
24 21 1
24 22 4
24 23 1
25 0 4
25 1 3
25 2 3
25 3 3
25 4 2
25 5 4
25 6 1
25 7 2
25 8 2
25 9 5
25 10 2
25 11 2
25 12 1
25 13 4
25 14 4
25 15 4
25 16 3
25 17 5
25 18 5
25 19 1
25 20 3
25 21 4
25 22 5
25 23 1
25 24 3
26 0 5
26 1 3
26 2 4
26 3 5
26 4 2
26 5 5
26 6 3
26 7 4
26 8 2
26 9 5
26 10 2
26 11 1
26 12 1
26 13 1
26 14 1
26 15 5
26 16 1
26 17 2
26 18 1
26 19 4
26 20 2
26 21 3
26 22 1
26 23 5
26 24 4
26 25 1
27 0 5
27 1 1
27 2 1
27 3 5
27 4 2
27 5 1
27 6 2
27 7 1
27 8 4
27 9 2
27 10 2
27 11 4
27 12 5
27 13 4
27 14 3
27 15 5
27 16 5
27 17 1
27 18 5
27 19 1
27 20 1
27 21 2
27 22 5
27 23 1
27 24 3
27 25 2
27 26 1
28 0 5
28 1 1
28 2 5
28 3 5
28 4 2
28 5 5
28 6 4
28 7 3
28 8 3
28 9 1
28 10 2
28 11 5
28 12 5
28 13 1
28 14 2
28 15 4
28 16 4
28 17 1
28 18 4
28 19 5
28 20 4
28 21 4
28 22 4
28 23 4
28 24 1
28 25 5
28 26 3
28 27 1
29 0 5
29 1 1
29 2 2
29 3 1
29 4 1
29 5 3
29 6 5
29 7 2
29 8 3
29 9 5
29 10 3
29 11 5
29 12 4
29 13 5
29 14 3
29 15 3
29 16 3
29 17 4
29 18 2
29 19 5
29 20 1
29 21 1
29 22 2
29 23 4
29 24 2
29 25 3
29 26 1
29 27 5
29 28 2
30 0 3
30 1 4
30 2 2
30 3 5
30 4 2
30 5 2
30 6 3
30 7 1
30 8 1
30 9 2
30 10 3
30 11 5
30 12 4
30 13 2
30 14 4
30 15 1
30 16 2
30 17 4
30 18 4
30 19 1
30 20 4
30 21 4
30 22 2
30 23 4
30 24 1
30 25 2
30 26 3
30 27 2
30 28 1
30 29 4
31 0 1
31 1 5
31 2 5
31 3 5
31 4 3
31 5 3
31 6 3
31 7 2
31 8 4
31 9 1
31 10 4
31 11 3
31 12 5
31 13 4
31 14 4
31 15 4
31 16 2
31 17 2
31 18 3
31 19 1
31 20 1
31 21 5
31 22 3
31 23 5
31 24 1
31 25 3
31 26 3
31 27 1
31 28 1
31 29 2
31 30 1
32 0 4
32 1 5
32 2 3
32 3 3
32 4 2
32 5 1
32 6 1
32 7 1
32 8 2
32 9 1
32 10 2
32 11 3
32 12 4
32 13 1
32 14 1
32 15 3
32 16 2
32 17 5
32 18 2
32 19 1
32 20 5
32 21 1
32 22 5
32 23 3
32 24 4
32 25 4
32 26 4
32 27 5
32 28 1
32 29 5
32 30 5
32 31 1
33 0 1
33 1 1
33 2 2
33 3 5
33 4 5
33 5 1
33 6 4
33 7 3
33 8 5
33 9 4
33 10 5
33 11 2
33 12 3
33 13 1
33 14 3
33 15 2
33 16 5
33 17 5
33 18 5
33 19 3
33 20 5
33 21 3
33 22 4
33 23 4
33 24 5
33 25 2
33 26 5
33 27 3
33 28 5
33 29 1
33 30 2
33 31 1
33 32 1
34 0 3
34 1 1
34 2 1
34 3 5
34 4 5
34 5 5
34 6 3
34 7 5
34 8 5
34 9 3
34 10 1
34 11 5
34 12 2
34 13 3
34 14 1
34 15 1
34 16 3
34 17 2
34 18 3
34 19 2
34 20 1
34 21 2
34 22 4
34 23 4
34 24 4
34 25 3
34 26 2
34 27 2
34 28 1
34 29 1
34 30 1
34 31 2
34 32 4
34 33 4
35 0 4
35 1 2
35 2 4
35 3 2
35 4 3
35 5 5
35 6 3
35 7 3
35 8 3
35 9 3
35 10 5
35 11 2
35 12 4
35 13 1
35 14 3
35 15 4
35 16 5
35 17 3
35 18 4
35 19 1
35 20 5
35 21 4
35 22 4
35 23 3
35 24 3
35 25 4
35 26 1
35 27 1
35 28 4
35 29 1
35 30 2
35 31 1
35 32 5
35 33 3
35 34 4
36 0 3
36 1 1
36 2 4
36 3 4
36 4 5
36 5 5
36 6 3
36 7 2
36 8 4
36 9 2
36 10 1
36 11 2
36 12 5
36 13 3
36 14 5
36 15 5
36 16 1
36 17 3
36 18 5
36 19 4
36 20 4
36 21 2
36 22 4
36 23 3
36 24 4
36 25 5
36 26 4
36 27 4
36 28 1
36 29 1
36 30 3
36 31 1
36 32 3
36 33 1
36 34 3
36 35 3
37 0 5
37 1 2
37 2 3
37 3 3
37 4 5
37 5 4
37 6 4
37 7 2
37 8 1
37 9 3
37 10 3
37 11 1
37 12 3
37 13 4
37 14 4
37 15 4
37 16 5
37 17 1
37 18 5
37 19 5
37 20 4
37 21 1
37 22 1
37 23 3
37 24 3
37 25 5
37 26 4
37 27 3
37 28 1
37 29 2
37 30 1
37 31 2
37 32 3
37 33 5
37 34 3
37 35 2
37 36 4
38 0 2
38 1 5
38 2 2
38 3 3
38 4 1
38 5 2
38 6 2
38 7 4
38 8 5
38 9 2
38 10 2
38 11 4
38 12 1
38 13 3
38 14 2
38 15 5
38 16 5
38 17 1
38 18 2
38 19 1
38 20 3
38 21 2
38 22 2
38 23 5
38 24 1
38 25 5
38 26 4
38 27 2
38 28 5
38 29 1
38 30 1
38 31 5
38 32 2
38 33 2
38 34 2
38 35 5
38 36 3
38 37 5
39 0 3
39 1 5
39 2 3
39 3 4
39 4 4
39 5 3
39 6 3
39 7 5
39 8 3
39 9 3
39 10 4
39 11 1
39 12 4
39 13 2
39 14 3
39 15 3
39 16 4
39 17 2
39 18 5
39 19 1
39 20 5
39 21 3
39 22 1
39 23 2
39 24 4
39 25 4
39 26 4
39 27 4
39 28 1
39 29 3
39 30 4
39 31 5
39 32 4
39 33 2
39 34 1
39 35 1
39 36 2
39 37 2
39 38 1
40 0 3
40 1 2
40 2 4
40 3 2
40 4 5
40 5 5
40 6 4
40 7 2
40 8 2
40 9 5
40 10 4
40 11 3
40 12 4
40 13 5
40 14 1
40 15 1
40 16 4
40 17 3
40 18 4
40 19 3
40 20 5
40 21 1
40 22 2
40 23 4
40 24 4
40 25 4
40 26 3
40 27 5
40 28 5
40 29 5
40 30 5
40 31 4
40 32 4
40 33 3
40 34 4
40 35 1
40 36 1
40 37 2
40 38 2
40 39 4
41 0 3
41 1 5
41 2 2
41 3 5
41 4 3
41 5 3
41 6 1
41 7 3
41 8 2
41 9 2
41 10 4
41 11 2
41 12 3
41 13 5
41 14 2
41 15 4
41 16 5
41 17 2
41 18 2
41 19 2
41 20 4
41 21 2
41 22 5
41 23 2
41 24 5
41 25 5
41 26 4
41 27 4
41 28 4
41 29 4
41 30 4
41 31 2
41 32 1
41 33 3
41 34 5
41 35 1
41 36 5
41 37 3
41 38 5
41 39 3
41 40 2
42 0 5
42 1 2
42 2 5
42 3 3
42 4 4
42 5 5
42 6 5
42 7 3
42 8 4
42 9 3
42 10 5
42 11 2
42 12 3
42 13 5
42 14 3
42 15 3
42 16 3
42 17 4
42 18 4
42 19 2
42 20 3
42 21 5
42 22 2
42 23 3
42 24 2
42 25 3
42 26 4
42 27 1
42 28 3
42 29 5
42 30 5
42 31 2
42 32 2
42 33 4
42 34 3
42 35 5
42 36 4
42 37 4
42 38 2
42 39 1
42 40 2
42 41 3
43 0 1
43 1 1
43 2 4
43 3 4
43 4 3
43 5 3
43 6 1
43 7 5
43 8 1
43 9 1
43 10 3
43 11 2
43 12 1
43 13 2
43 14 2
43 15 3
43 16 5
43 17 4
43 18 2
43 19 3
43 20 4
43 21 5
43 22 5
43 23 1
43 24 1
43 25 4
43 26 5
43 27 2
43 28 2
43 29 4
43 30 2
43 31 5
43 32 1
43 33 3
43 34 4
43 35 2
43 36 3
43 37 2
43 38 3
43 39 5
43 40 2
43 41 4
43 42 5
44 0 5
44 1 1
44 2 5
44 3 5
44 4 4
44 5 5
44 6 2
44 7 3
44 8 5
44 9 3
44 10 4
44 11 4
44 12 3
44 13 4
44 14 3
44 15 1
44 16 4
44 17 4
44 18 1
44 19 4
44 20 2
44 21 5
44 22 5
44 23 5
44 24 2
44 25 1
44 26 4
44 27 2
44 28 2
44 29 4
44 30 5
44 31 1
44 32 2
44 33 2
44 34 3
44 35 3
44 36 3
44 37 5
44 38 3
44 39 1
44 40 1
44 41 3
44 42 2
44 43 3
45 0 5
45 1 2
45 2 5
45 3 1
45 4 5
45 5 1
45 6 3
45 7 2
45 8 5
45 9 5
45 10 1
45 11 1
45 12 5
45 13 5
45 14 4
45 15 3
45 16 2
45 17 2
45 18 3
45 19 1
45 20 4
45 21 1
45 22 4
45 23 5
45 24 1
45 25 1
45 26 3
45 27 3
45 28 4
45 29 2
45 30 2
45 31 2
45 32 3
45 33 5
45 34 3
45 35 5
45 36 4
45 37 3
45 38 2
45 39 2
45 40 4
45 41 2
45 42 2
45 43 1
45 44 5
46 0 5
46 1 5
46 2 3
46 3 2
46 4 3
46 5 5
46 6 2
46 7 1
46 8 5
46 9 1
46 10 4
46 11 4
46 12 2
46 13 1
46 14 4
46 15 3
46 16 3
46 17 4
46 18 2
46 19 2
46 20 5
46 21 5
46 22 4
46 23 5
46 24 2
46 25 2
46 26 4
46 27 3
46 28 2
46 29 5
46 30 4
46 31 1
46 32 1
46 33 3
46 34 5
46 35 5
46 36 5
46 37 4
46 38 5
46 39 3
46 40 3
46 41 2
46 42 3
46 43 1
46 44 1
46 45 3
47 0 3
47 1 5
47 2 3
47 3 2
47 4 5
47 5 4
47 6 2
47 7 4
47 8 1
47 9 3
47 10 5
47 11 3
47 12 2
47 13 3
47 14 2
47 15 5
47 16 2
47 17 4
47 18 3
47 19 1
47 20 1
47 21 1
47 22 4
47 23 2
47 24 2
47 25 4
47 26 4
47 27 5
47 28 1
47 29 3
47 30 1
47 31 4
47 32 3
47 33 3
47 34 3
47 35 3
47 36 1
47 37 1
47 38 4
47 39 5
47 40 3
47 41 1
47 42 3
47 43 1
47 44 5
47 45 2
47 46 5
48 0 4
48 1 5
48 2 5
48 3 4
48 4 1
48 5 3
48 6 4
48 7 3
48 8 3
48 9 1
48 10 1
48 11 1
48 12 4
48 13 4
48 14 5
48 15 4
48 16 3
48 17 5
48 18 3
48 19 1
48 20 1
48 21 1
48 22 4
48 23 2
48 24 4
48 25 5
48 26 1
48 27 4
48 28 4
48 29 1
48 30 5
48 31 3
48 32 4
48 33 3
48 34 1
48 35 1
48 36 4
48 37 5
48 38 5
48 39 4
48 40 3
48 41 2
48 42 4
48 43 3
48 44 5
48 45 4
48 46 4
48 47 2
49 0 1
49 1 2
49 2 2
49 3 1
49 4 3
49 5 2
49 6 4
49 7 3
49 8 3
49 9 1
49 10 4
49 11 1
49 12 4
49 13 3
49 14 4
49 15 3
49 16 2
49 17 2
49 18 2
49 19 3
49 20 4
49 21 5
49 22 5
49 23 3
49 24 4
49 25 1
49 26 2
49 27 1
49 28 5
49 29 2
49 30 5
49 31 4
49 32 3
49 33 5
49 34 2
49 35 1
49 36 1
49 37 5
49 38 1
49 39 1
49 40 3
49 41 4
49 42 4
49 43 2
49 44 2
49 45 2
49 46 1
49 47 1
49 48 3
50 0 3
50 1 5
50 2 1
50 3 1
50 4 3
50 5 3
50 6 4
50 7 5
50 8 3
50 9 5
50 10 1
50 11 5
50 12 1
50 13 3
50 14 3
50 15 4
50 16 3
50 17 5
50 18 5
50 19 3
50 20 2
50 21 1
50 22 3
50 23 4
50 24 2
50 25 5
50 26 2
50 27 3
50 28 1
50 29 3
50 30 2
50 31 4
50 32 2
50 33 2
50 34 4
50 35 4
50 36 5
50 37 5
50 38 5
50 39 3
50 40 4
50 41 1
50 42 1
50 43 5
50 44 3
50 45 3
50 46 3
50 47 3
50 48 2
50 49 5
51 0 5
51 1 3
51 2 4
51 3 4
51 4 4
51 5 2
51 6 2
51 7 2
51 8 1
51 9 4
51 10 2
51 11 3
51 12 2
51 13 4
51 14 5
51 15 2
51 16 1
51 17 2
51 18 1
51 19 3
51 20 4
51 21 5
51 22 3
51 23 2
51 24 1
51 25 1
51 26 1
51 27 2
51 28 2
51 29 5
51 30 4
51 31 1
51 32 1
51 33 1
51 34 5
51 35 4
51 36 3
51 37 5
51 38 1
51 39 4
51 40 3
51 41 4
51 42 4
51 43 2
51 44 4
51 45 2
51 46 5
51 47 4
51 48 4
51 49 5
51 50 1
52 0 5
52 1 3
52 2 2
52 3 4
52 4 4
52 5 5
52 6 5
52 7 2
52 8 1
52 9 4
52 10 1
52 11 2
52 12 1
52 13 3
52 14 2
52 15 5
52 16 3
52 17 3
52 18 1
52 19 4
52 20 3
52 21 1
52 22 3
52 23 5
52 24 2
52 25 3
52 26 5
52 27 1
52 28 2
52 29 2
52 30 4
52 31 4
52 32 3
52 33 2
52 34 3
52 35 2
52 36 5
52 37 1
52 38 5
52 39 1
52 40 2
52 41 3
52 42 5
52 43 1
52 44 2
52 45 1
52 46 2
52 47 1
52 48 2
52 49 2
52 50 1
52 51 3
53 0 4
53 1 5
53 2 2
53 3 3
53 4 2
53 5 2
53 6 4
53 7 2
53 8 3
53 9 2
53 10 1
53 11 2
53 12 1
53 13 5
53 14 3
53 15 3
53 16 1
53 17 5
53 18 5
53 19 2
53 20 5
53 21 3
53 22 5
53 23 5
53 24 1
53 25 1
53 26 1
53 27 1
53 28 4
53 29 5
53 30 4
53 31 5
53 32 1
53 33 2
53 34 2
53 35 4
53 36 3
53 37 4
53 38 3
53 39 3
53 40 5
53 41 4
53 42 4
53 43 4
53 44 1
53 45 1
53 46 3
53 47 3
53 48 4
53 49 2
53 50 5
53 51 2
53 52 2
54 0 2
54 1 2
54 2 3
54 3 3
54 4 1
54 5 1
54 6 3
54 7 3
54 8 5
54 9 2
54 10 2
54 11 4
54 12 3
54 13 5
54 14 5
54 15 2
54 16 3
54 17 2
54 18 2
54 19 3
54 20 2
54 21 1
54 22 5
54 23 3
54 24 2
54 25 3
54 26 5
54 27 3
54 28 5
54 29 5
54 30 5
54 31 1
54 32 3
54 33 1
54 34 3
54 35 3
54 36 4
54 37 1
54 38 3
54 39 2
54 40 4
54 41 5
54 42 2
54 43 2
54 44 1
54 45 5
54 46 3
54 47 3
54 48 5
54 49 2
54 50 3
54 51 5
54 52 4
54 53 4
55 0 3
55 1 3
55 2 1
55 3 5
55 4 5
55 5 4
55 6 2
55 7 2
55 8 3
55 9 3
55 10 4
55 11 1
55 12 3
55 13 3
55 14 3
55 15 5
55 16 1
55 17 2
55 18 3
55 19 3
55 20 3
55 21 5
55 22 5
55 23 4
55 24 2
55 25 2
55 26 1
55 27 2
55 28 5
55 29 2
55 30 2
55 31 4
55 32 1
55 33 2
55 34 4
55 35 3
55 36 4
55 37 2
55 38 5
55 39 3
55 40 3
55 41 4
55 42 1
55 43 3
55 44 3
55 45 3
55 46 5
55 47 1
55 48 4
55 49 2
55 50 4
55 51 5
55 52 5
55 53 2
55 54 2
56 0 1
56 1 4
56 2 3
56 3 3
56 4 3
56 5 5
56 6 2
56 7 2
56 8 5
56 9 5
56 10 1
56 11 4
56 12 2
56 13 2
56 14 2
56 15 1
56 16 2
56 17 5
56 18 4
56 19 3
56 20 5
56 21 1
56 22 4
56 23 3
56 24 3
56 25 5
56 26 1
56 27 5
56 28 2
56 29 4
56 30 3
56 31 3
56 32 5
56 33 1
56 34 1
56 35 1
56 36 4
56 37 4
56 38 4
56 39 2
56 40 5
56 41 1
56 42 2
56 43 1
56 44 2
56 45 1
56 46 4
56 47 3
56 48 1
56 49 1
56 50 2
56 51 4
56 52 2
56 53 3
56 54 4
56 55 4
57 0 3
57 1 4
57 2 5
57 3 3
57 4 4
57 5 1
57 6 1
57 7 1
57 8 4
57 9 3
57 10 1
57 11 1
57 12 3
57 13 1
57 14 3
57 15 3
57 16 4
57 17 4
57 18 3
57 19 1
57 20 4
57 21 3
57 22 3
57 23 5
57 24 2
57 25 4
57 26 2
57 27 1
57 28 2
57 29 2
57 30 3
57 31 3
57 32 3
57 33 2
57 34 4
57 35 4
57 36 3
57 37 3
57 38 5
57 39 4
57 40 2
57 41 4
57 42 4
57 43 2
57 44 4
57 45 2
57 46 1
57 47 3
57 48 1
57 49 5
57 50 3
57 51 5
57 52 5
57 53 1
57 54 1
57 55 3
57 56 1
58 0 4
58 1 5
58 2 1
58 3 5
58 4 1
58 5 2
58 6 2
58 7 2
58 8 4
58 9 1
58 10 3
58 11 2
58 12 3
58 13 3
58 14 4
58 15 3
58 16 4
58 17 4
58 18 1
58 19 3
58 20 4
58 21 4
58 22 2
58 23 4
58 24 1
58 25 3
58 26 5
58 27 5
58 28 5
58 29 5
58 30 3
58 31 4
58 32 3
58 33 1
58 34 4
58 35 5
58 36 5
58 37 4
58 38 1
58 39 2
58 40 5
58 41 3
58 42 1
58 43 5
58 44 3
58 45 4
58 46 3
58 47 4
58 48 3
58 49 5
58 50 4
58 51 2
58 52 4
58 53 3
58 54 5
58 55 3
58 56 3
58 57 3
59 0 3
59 1 3
59 2 1
59 3 2
59 4 3
59 5 5
59 6 1
59 7 5
59 8 5
59 9 4
59 10 1
59 11 1
59 12 1
59 13 2
59 14 3
59 15 1
59 16 2
59 17 4
59 18 1
59 19 2
59 20 5
59 21 3
59 22 1
59 23 3
59 24 2
59 25 2
59 26 2
59 27 2
59 28 3
59 29 4
59 30 5
59 31 2
59 32 4
59 33 3
59 34 4
59 35 3
59 36 5
59 37 2
59 38 3
59 39 3
59 40 5
59 41 4
59 42 2
59 43 4
59 44 4
59 45 2
59 46 5
59 47 5
59 48 1
59 49 4
59 50 3
59 51 4
59 52 3
59 53 5
59 54 3
59 55 2
59 56 5
59 57 4
59 58 4
60 0 1
60 1 3
60 2 5
60 3 2
60 4 2
60 5 4
60 6 5
60 7 5
60 8 2
60 9 1
60 10 5
60 11 2
60 12 2
60 13 3
60 14 5
60 15 1
60 16 4
60 17 3
60 18 1
60 19 4
60 20 5
60 21 5
60 22 5
60 23 4
60 24 4
60 25 4
60 26 4
60 27 4
60 28 4
60 29 3
60 30 4
60 31 3
60 32 5
60 33 1
60 34 1
60 35 1
60 36 2
60 37 5
60 38 2
60 39 1
60 40 1
60 41 1
60 42 4
60 43 4
60 44 4
60 45 3
60 46 4
60 47 5
60 48 5
60 49 2
60 50 2
60 51 1
60 52 1
60 53 3
60 54 4
60 55 1
60 56 1
60 57 1
60 58 2
60 59 5
61 0 5
61 1 4
61 2 1
61 3 5
61 4 2
61 5 2
61 6 2
61 7 1
61 8 5
61 9 3
61 10 2
61 11 4
61 12 1
61 13 1
61 14 2
61 15 1
61 16 4
61 17 5
61 18 4
61 19 3
61 20 2
61 21 3
61 22 1
61 23 4
61 24 4
61 25 1
61 26 4
61 27 2
61 28 2
61 29 3
61 30 1
61 31 3
61 32 1
61 33 4
61 34 4
61 35 5
61 36 1
61 37 5
61 38 2
61 39 4
61 40 1
61 41 3
61 42 4
61 43 2
61 44 1
61 45 2
61 46 1
61 47 5
61 48 1
61 49 4
61 50 3
61 51 5
61 52 1
61 53 5
61 54 5
61 55 2
61 56 5
61 57 3
61 58 1
61 59 3
61 60 3
62 0 1
62 1 1
62 2 3
62 3 2
62 4 5
62 5 3
62 6 5
62 7 3
62 8 1
62 9 1
62 10 1
62 11 4
62 12 3
62 13 4
62 14 2
62 15 1
62 16 3
62 17 4
62 18 2
62 19 2
62 20 5
62 21 2
62 22 1
62 23 3
62 24 5
62 25 3
62 26 4
62 27 3
62 28 5
62 29 4
62 30 4
62 31 5
62 32 3
62 33 4
62 34 3
62 35 2
62 36 4
62 37 5
62 38 4
62 39 3
62 40 2
62 41 2
62 42 4
62 43 3
62 44 1
62 45 4
62 46 4
62 47 1
62 48 4
62 49 2
62 50 5
62 51 3
62 52 2
62 53 4
62 54 1
62 55 1
62 56 4
62 57 4
62 58 1
62 59 1
62 60 3
62 61 3
63 0 2
63 1 5
63 2 1
63 3 2
63 4 5
63 5 4
63 6 2
63 7 2
63 8 5
63 9 2
63 10 4
63 11 5
63 12 2
63 13 3
63 14 1
63 15 4
63 16 2
63 17 3
63 18 4
63 19 4
63 20 5
63 21 2
63 22 5
63 23 4
63 24 3
63 25 3
63 26 3
63 27 2
63 28 1
63 29 2
63 30 5
63 31 3
63 32 3
63 33 4
63 34 2
63 35 1
63 36 1
63 37 4
63 38 1
63 39 3
63 40 5
63 41 2
63 42 1
63 43 4
63 44 1
63 45 4
63 46 4
63 47 3
63 48 5
63 49 4
63 50 1
63 51 4
63 52 5
63 53 2
63 54 2
63 55 4
63 56 5
63 57 5
63 58 2
63 59 5
63 60 1
63 61 3
63 62 5
64 0 3
64 1 3
64 2 2
64 3 3
64 4 4
64 5 1
64 6 3
64 7 2
64 8 4
64 9 5
64 10 4
64 11 5
64 12 1
64 13 1
64 14 1
64 15 4
64 16 5
64 17 1
64 18 3
64 19 3
64 20 2
64 21 3
64 22 3
64 23 5
64 24 1
64 25 3
64 26 5
64 27 2
64 28 5
64 29 1
64 30 2
64 31 3
64 32 4
64 33 5
64 34 1
64 35 4
64 36 1
64 37 2
64 38 4
64 39 1
64 40 5
64 41 4
64 42 5
64 43 1
64 44 3
64 45 4
64 46 1
64 47 1
64 48 5
64 49 4
64 50 3
64 51 3
64 52 3
64 53 1
64 54 5
64 55 4
64 56 3
64 57 1
64 58 5
64 59 1
64 60 3
64 61 5
64 62 4
64 63 3
65 0 4
65 1 2
65 2 3
65 3 5
65 4 2
65 5 5
65 6 5
65 7 3
65 8 2
65 9 3
65 10 1
65 11 1
65 12 5
65 13 2
65 14 4
65 15 5
65 16 1
65 17 2
65 18 3
65 19 1
65 20 1
65 21 4
65 22 2
65 23 5
65 24 4
65 25 5
65 26 2
65 27 1
65 28 4
65 29 5
65 30 5
65 31 1
65 32 4
65 33 2
65 34 5
65 35 2
65 36 1
65 37 2
65 38 5
65 39 5
65 40 4
65 41 1
65 42 4
65 43 4
65 44 3
65 45 1
65 46 3
65 47 3
65 48 4
65 49 5
65 50 3
65 51 4
65 52 3
65 53 4
65 54 1
65 55 1
65 56 1
65 57 4
65 58 4
65 59 5
65 60 3
65 61 5
65 62 3
65 63 1
65 64 5
66 0 4
66 1 1
66 2 1
66 3 3
66 4 1
66 5 3
66 6 3
66 7 1
66 8 1
66 9 3
66 10 3
66 11 1
66 12 3
66 13 2
66 14 4
66 15 5
66 16 3
66 17 5
66 18 5
66 19 5
66 20 4
66 21 5
66 22 4
66 23 1
66 24 1
66 25 1
66 26 4
66 27 2
66 28 2
66 29 4
66 30 4
66 31 5
66 32 1
66 33 2
66 34 2
66 35 3
66 36 3
66 37 5
66 38 2
66 39 3
66 40 3
66 41 1
66 42 1
66 43 2
66 44 4
66 45 3
66 46 5
66 47 2
66 48 5
66 49 3
66 50 5
66 51 4
66 52 3
66 53 4
66 54 4
66 55 5
66 56 4
66 57 3
66 58 4
66 59 1
66 60 4
66 61 3
66 62 3
66 63 1
66 64 1
66 65 2
67 0 5
67 1 1
67 2 3
67 3 4
67 4 5
67 5 3
67 6 1
67 7 1
67 8 1
67 9 5
67 10 3
67 11 1
67 12 3
67 13 4
67 14 2
67 15 2
67 16 2
67 17 1
67 18 5
67 19 3
67 20 1
67 21 2
67 22 1
67 23 3
67 24 3
67 25 2
67 26 4
67 27 2
67 28 3
67 29 3
67 30 1
67 31 4
67 32 4
67 33 3
67 34 1
67 35 4
67 36 1
67 37 3
67 38 4
67 39 1
67 40 1
67 41 1
67 42 4
67 43 2
67 44 3
67 45 1
67 46 2
67 47 2
67 48 3
67 49 3
67 50 4
67 51 1
67 52 3
67 53 4
67 54 5
67 55 3
67 56 5
67 57 5
67 58 2
67 59 5
67 60 2
67 61 1
67 62 4
67 63 4
67 64 3
67 65 3
67 66 3
68 0 2
68 1 1
68 2 2
68 3 3
68 4 5
68 5 4
68 6 1
68 7 3
68 8 5
68 9 4
68 10 3
68 11 5
68 12 3
68 13 2
68 14 3
68 15 4
68 16 5
68 17 3
68 18 3
68 19 2
68 20 5
68 21 5
68 22 3
68 23 4
68 24 3
68 25 1
68 26 4
68 27 3
68 28 5
68 29 4
68 30 4
68 31 3
68 32 4
68 33 4
68 34 4
68 35 1
68 36 5
68 37 4
68 38 3
68 39 4
68 40 3
68 41 4
68 42 1
68 43 5
68 44 1
68 45 1
68 46 3
68 47 3
68 48 4
68 49 3
68 50 2
68 51 1
68 52 3
68 53 2
68 54 4
68 55 2
68 56 5
68 57 4
68 58 4
68 59 5
68 60 5
68 61 1
68 62 5
68 63 3
68 64 2
68 65 3
68 66 4
68 67 2
69 0 5
69 1 3
69 2 5
69 3 5
69 4 4
69 5 4
69 6 5
69 7 5
69 8 4
69 9 5
69 10 5
69 11 2
69 12 3
69 13 3
69 14 2
69 15 4
69 16 5
69 17 2
69 18 4
69 19 2
69 20 4
69 21 1
69 22 3
69 23 2
69 24 5
69 25 4
69 26 4
69 27 2
69 28 3
69 29 3
69 30 2
69 31 1
69 32 3
69 33 2
69 34 2
69 35 5
69 36 4
69 37 5
69 38 4
69 39 2
69 40 4
69 41 4
69 42 5
69 43 3
69 44 3
69 45 4
69 46 2
69 47 1
69 48 1
69 49 5
69 50 4
69 51 4
69 52 4
69 53 5
69 54 3
69 55 5
69 56 5
69 57 1
69 58 4
69 59 2
69 60 3
69 61 4
69 62 1
69 63 4
69 64 1
69 65 1
69 66 5
69 67 5
69 68 4
